data;

set A := 367 859 907 800 500 491 214 539 477 900 274 156 566 260 998 370 308 970 222 789 799 154 100 184 178 270 946 97 822 45 69 15 754 991 419 571 877 750 77 495 393 78 245 369 258 853 825 40 293 819 510 869 441 203 716 115 384 48 152 862 909 185 153 906 265 557 418 762;
param T := 17000;

end;
